p wcnf 170 201 202 
1 91 -102 0 
1 98 150 0 
1 104 -80 0 
1 -50 109 0 
1 -21 -149 0 
1 -139 -150 0 
1 -34 -124 0 
1 -162 -46 0 
1 121 76 0 
1 168 21 0 
1 -25 -46 0 
1 -140 -67 0 
1 -142 139 0 
1 36 47 0 
1 -99 -143 0 
1 -47 87 0 
1 41 -37 0 
1 136 -88 0 
1 38 21 0 
1 29 15 0 
1 -5 21 0 
1 28 23 0 
1 99 117 0 
1 114 7 0 
1 5 -146 0 
1 -111 -169 0 
1 96 -162 0 
1 -88 -109 0 
1 -122 103 0 
1 -138 -33 0 
1 -9 -104 0 
1 7 159 0 
1 158 -64 0 
1 -2 -86 0 
1 78 77 0 
1 -24 92 0 
1 -13 -20 0 
1 -31 52 0 
1 139 64 0 
1 158 145 0 
1 59 62 0 
1 -157 -103 0 
1 120 -91 0 
1 -152 -51 0 
1 100 -151 0 
1 -158 64 0 
1 -148 81 0 
1 -105 -7 0 
1 -28 136 0 
1 79 126 0 
1 157 -166 0 
1 127 57 0 
1 -24 -120 0 
1 1 -78 0 
1 129 88 0 
1 -152 -151 0 
1 103 80 0 
1 -81 76 0 
1 168 -36 0 
1 -59 14 0 
1 149 -150 0 
1 -94 84 0 
1 141 -61 0 
1 -12 -20 0 
1 101 135 0 
1 125 48 0 
1 24 -155 0 
1 -41 -24 0 
1 -15 38 0 
1 -33 -113 0 
1 5 -144 0 
1 -34 92 0 
1 -98 80 0 
1 -67 5 0 
1 -18 96 0 
1 -8 -61 0 
1 -137 -2 0 
1 126 156 0 
1 -149 -75 0 
1 108 -69 0 
1 -47 -137 0 
1 -88 122 0 
1 139 8 0 
1 33 14 0 
1 162 53 0 
1 -57 -14 0 
1 -83 -169 0 
1 47 -110 0 
1 131 -121 0 
1 -76 32 0 
1 -138 -61 0 
1 -81 115 0 
1 -25 -36 0 
1 35 32 0 
1 161 68 0 
1 -170 -81 0 
1 -102 146 0 
1 -32 -158 0 
1 25 -78 0 
1 -83 70 0 
1 50 -15 0 
1 -122 10 0 
1 49 136 0 
1 13 150 0 
1 -51 52 0 
1 -119 -146 0 
1 153 -98 0 
1 157 41 0 
1 -75 66 0 
1 -36 -32 0 
1 80 -104 0 
1 106 -133 0 
1 -167 -94 0 
1 -129 -95 0 
1 -160 -39 0 
1 -80 -165 0 
1 50 81 0 
1 -34 -104 0 
1 51 90 0 
1 155 74 0 
1 -71 127 0 
1 -77 147 0 
1 3 -130 0 
1 77 9 0 
1 -46 157 0 
1 -59 148 0 
1 -28 -86 0 
1 -49 -138 0 
1 142 146 0 
1 -11 141 0 
1 -9 -13 0 
1 -37 -163 0 
1 142 -144 0 
1 -46 116 0 
1 17 100 0 
1 55 -117 0 
1 154 -59 0 
1 -22 -157 0 
1 -152 128 0 
1 96 -156 0 
1 13 -64 0 
1 161 -67 0 
1 -13 95 0 
1 -88 -81 0 
1 79 160 0 
1 135 -38 0 
1 143 6 0 
1 -46 23 0 
1 -10 -151 0 
1 -62 30 0 
1 -147 57 0 
1 91 2 0 
1 136 169 0 
1 -43 44 0 
1 86 -99 0 
1 -5 -158 0 
1 -144 67 0 
1 133 166 0 
1 -70 -167 0 
1 -125 -128 0 
1 -10 164 0 
1 87 -34 0 
1 102 -32 0 
1 150 -26 0 
1 135 -160 0 
1 99 -25 0 
1 99 -147 0 
1 170 -33 0 
1 21 -104 0 
1 32 -20 0 
1 31 -84 0 
1 32 -155 0 
1 -54 -155 0 
1 28 72 0 
1 99 -48 0 
1 104 -22 0 
1 -115 -138 0 
1 10 82 0 
1 28 -139 0 
1 -55 -114 0 
1 144 134 0 
1 -117 -19 0 
1 -149 154 0 
1 -88 -57 0 
1 49 65 0 
1 105 62 0 
1 -151 -122 0 
1 -68 38 0 
1 161 147 0 
1 125 19 0 
1 2 -98 0 
1 69 166 0 
1 -82 -10 0 
1 43 -13 0 
1 -10 31 0 
1 119 84 0 
1 -51 10 0 
1 -38 114 0 
1 -24 -154 0 
1 149 -54 0 
1 69 93 0 
